
Gurobi 9.0.1 (linux64) logging started Thu Apr 30 06:12:50 2020

Gurobi Optimizer version 9.0.1 build v9.0.1rc0 (linux64)
Optimize a model with 2058 rows, 2120 columns and 19760 nonzeros
Model fingerprint: 0xdaf35a7c
Variable types: 0 continuous, 2120 integer (2106 binary)
Coefficient statistics:
  Matrix range     [1e+00, 7e+00]
  Objective range  [2e+00, 1e+02]
  Bounds range     [1e+00, 1e+00]
  RHS range        [1e+00, 1e+00]

User MIP start produced solution with objective 752 (0.01s)
Loaded user MIP start with objective 752

Presolve removed 630 rows and 736 columns
Presolve time: 0.13s
Presolved: 1428 rows, 1384 columns, 14632 nonzeros
Variable types: 0 continuous, 1384 integer (1372 binary)

Root relaxation: objective 5.221686e+02, 1256 iterations, 0.12 seconds

    Nodes    |    Current Node    |     Objective Bounds      |     Work
 Expl Unexpl |  Obj  Depth IntInf | Incumbent    BestBd   Gap | It/Node Time

     0     0  522.16865    0  400  752.00000  522.16865  30.6%     -    0s
     0     0  532.79311    0  433  752.00000  532.79311  29.1%     -    0s
     0     0  533.75955    0  420  752.00000  533.75955  29.0%     -    0s
     0     0  533.77296    0  420  752.00000  533.77296  29.0%     -    0s
     0     0  533.77402    0  422  752.00000  533.77402  29.0%     -    0s
     0     0  540.64502    0  433  752.00000  540.64502  28.1%     -    1s
     0     0  540.83018    0  452  752.00000  540.83018  28.1%     -    1s
     0     0  540.84764    0  449  752.00000  540.84764  28.1%     -    1s
     0     0  540.84771    0  451  752.00000  540.84771  28.1%     -    1s
     0     0  545.88016    0  445  752.00000  545.88016  27.4%     -    2s
     0     0  546.28420    0  456  752.00000  546.28420  27.4%     -    2s
     0     0  546.37191    0  451  752.00000  546.37191  27.3%     -    2s
     0     0  546.37639    0  454  752.00000  546.37639  27.3%     -    2s
     0     0  549.05430    0  446  752.00000  549.05430  27.0%     -    2s
     0     0  549.80411    0  468  752.00000  549.80411  26.9%     -    3s
     0     0  549.86934    0  459  752.00000  549.86934  26.9%     -    3s
     0     0  549.90045    0  465  752.00000  549.90045  26.9%     -    3s
     0     0  549.90103    0  463  752.00000  549.90103  26.9%     -    3s
     0     0  550.52988    0  472  752.00000  550.52988  26.8%     -    3s
     0     0  550.57270    0  484  752.00000  550.57270  26.8%     -    3s
     0     0  550.59694    0  471  752.00000  550.59694  26.8%     -    3s
     0     0  550.60133    0  473  752.00000  550.60133  26.8%     -    3s
     0     0  551.21391    0  484  752.00000  551.21391  26.7%     -    3s
     0     0  551.30619    0  482  752.00000  551.30619  26.7%     -    3s
     0     0  551.33784    0  494  752.00000  551.33784  26.7%     -    3s
     0     0  551.34252    0  496  752.00000  551.34252  26.7%     -    3s
     0     0  551.71077    0  484  752.00000  551.71077  26.6%     -    4s
     0     0  551.83386    0  491  752.00000  551.83386  26.6%     -    4s
     0     0  551.85478    0  493  752.00000  551.85478  26.6%     -    4s
     0     0  551.85935    0  493  752.00000  551.85935  26.6%     -    4s
     0     0  552.47698    0  471  752.00000  552.47698  26.5%     -    4s
     0     0  552.50881    0  468  752.00000  552.50881  26.5%     -    4s
     0     0  552.52237    0  470  752.00000  552.52237  26.5%     -    4s
     0     0  553.05725    0  475  752.00000  553.05725  26.5%     -    4s
     0     0  553.10508    0  483  752.00000  553.10508  26.4%     -    4s
     0     0  553.11203    0  479  752.00000  553.11203  26.4%     -    4s
     0     0  553.53230    0  475  752.00000  553.53230  26.4%     -    4s
     0     0  553.55897    0  479  752.00000  553.55897  26.4%     -    4s
     0     0  553.56474    0  484  752.00000  553.56474  26.4%     -    4s
     0     0  553.77019    0  481  752.00000  553.77019  26.4%     -    5s
     0     0  553.85728    0  486  752.00000  553.85728  26.3%     -    5s
     0     0  553.88177    0  497  752.00000  553.88177  26.3%     -    5s
     0     0  553.89033    0  496  752.00000  553.89033  26.3%     -    5s
     0     0  553.92968    0  495  752.00000  553.92968  26.3%     -    5s
     0     0  553.92968    0  493  752.00000  553.92968  26.3%     -    5s
     0     2  553.95000    0  493  752.00000  553.95000  26.3%     -    5s
    43    45  636.74471   27  329  752.00000  557.18745  25.9%   474   10s
    87    77  588.75264   12  452  752.00000  557.18745  25.9%   511   15s
H  106    90                     748.0000000  557.18745  25.5%   504   16s
H  136   102                     727.0000000  557.18745  23.4%   461   18s
   151   113  604.68793   10  303  727.00000  568.87920  21.7%   468   20s
H  190   134                     677.0000000  568.87920  16.0%   435   22s
H  244   141                     641.0000000  569.28377  11.2%   380   25s
*  255   138              36     637.0000000  569.28377  10.6%   364   25s
   325   178  633.21046   20  203  637.00000  570.31039  10.5%   344   30s
H  352   145                     622.0000000  570.31039  8.31%   335   31s
   420   151  590.70366   11  376  622.00000  574.74365  7.60%   315   35s
   511   168  599.28810   14  493  622.00000  575.91418  7.41%   295   41s
   524   177  607.02409   18  500  622.00000  575.91418  7.41%   288   45s
   535   184  588.20891   10  492  622.00000  575.91418  7.41%   282   50s
   550   195  604.17684    6  495  622.00000  575.91418  7.41%   292   55s
   556   201  575.91418   22  494  622.00000  575.91418  7.41%   307   60s
   574   213  594.23108   31  406  622.00000  575.91418  7.41%   324   65s
   618   225  602.65708   30  366  622.00000  575.91418  7.41%   344   70s
   684   235  600.74259   37  343  622.00000  575.91418  7.41%   353   75s
   777   220  593.55968   33  309  622.00000  580.86668  6.61%   347   80s
   895   193  588.46275   32  386  622.00000  584.17250  6.08%   335   85s
   982   195 infeasible   32       622.00000  585.18251  5.92%   331   90s
  1070   192  620.99160   39   85  622.00000  586.87635  5.65%   327   95s
  1147   181  618.79384   31  339  622.00000  588.38209  5.40%   327  100s
  1219   187  602.28713   40  328  622.00000  588.87391  5.33%   328  105s
  1299   197  617.47287   30  301  622.00000  590.60678  5.05%   327  110s
  1379   210  607.35137   40  336  622.00000  591.94383  4.83%   326  115s
  1476   205  608.12950   37  385  622.00000  594.35766  4.44%   326  120s
  1574   207  615.05654   34  319  622.00000  596.33784  4.13%   324  125s
  1732   189  615.65097   37  306  622.00000  602.41235  3.15%   312  130s
  1867   158  614.70975   39  309  622.00000  608.12950  2.23%   305  135s
  2058   109     cutoff   33       622.00000  613.89235  1.30%   289  140s
  2571   145  619.26892   50  141  622.00000  616.64270  0.86%   243  145s

Cutting planes:
  Gomory: 1
  MIR: 22
  Flow cover: 135
  Inf proof: 24
  Zero half: 68
  RLT: 345

Explored 3186 nodes (662810 simplex iterations) in 148.91 seconds
Thread count was 1 (of 40 available processors)

Solution count 7: 622 637 641 ... 752

Optimal solution found (tolerance 1.00e-04)
Best objective 6.220000000000e+02, best bound 6.220000000000e+02, gap 0.0000%

User-callback calls 22278, time in user-callback 0.02 sec
